  Job Started  at 01:17.36 23rd June       2024

  Number of CPUs =     1

  Host name      = diamat.me.iitb.ac.in

  Total number of configurations input =      1

*  Input for Configuration =   1 : graphene                                    *

  Formula = C152

  Number of irreducible atoms/shells =     152

  Total number atoms/shells =     152

  Dimensionality = 3               :  Bulk

  Cartesian lattice vectors (Angstroms) :

       60.000000    0.000000    0.000000
        0.000000    6.401133    0.000000
        0.000000    0.000000    3.340000

  Cell parameters (Angstroms/Degrees):

  a =      60.0000    alpha =  90.0000
  b =       6.4011    beta  =  90.0000
  c =       3.3400    gamma =  90.0000

  Initial cell volume =        1282.787053 Angs**3

  Temperature of configuration =   0.00     K

  Pressure of configuration =         0.000 GPa

  Fractional coordinates of asymmetric unit :

   No.  Atomic       x           y          z         Charge      Occupancy
        Label      (Frac)      (Frac)     (Frac)        (e)         (Frac)
      1 C     c    0.002178    0.606922    0.000000     0.00000    1.000000
      2 C     c    0.010954    0.035859    0.000000     0.00000    1.000000
      3 C     c    0.015290    0.249770    0.000000     0.00000    1.000000
      4 C     c    0.024084    0.678686    0.000000     0.00000    1.000000
      5 C     c    0.028426    0.892584    0.000000     0.00000    1.000000
      6 C     c    0.037192    0.321559    0.000000     0.00000    1.000000
      7 C     c    0.041555    0.535422    0.000000     0.00000    1.000000
      8 C     c    0.050335    0.964321    0.000000     0.00000    1.000000
      9 C     c    0.054655    0.178264    0.000000     0.00000    1.000000
     10 C     c    0.063465    0.607164    0.000000     0.00000    1.000000
     11 C     c    0.067811    0.821048    0.000000     0.00000    1.000000
     12 C     c    0.076549    0.250114    0.000000     0.00000    1.000000
     13 C     c    0.080942    0.463927    0.000000     0.00000    1.000000
     14 C     c    0.089725    0.892742    0.000000     0.00000    1.000000
     15 C     c    0.093996    0.106780    0.000000     0.00000    1.000000
     16 C     c    0.102857    0.535632    0.000000     0.00000    1.000000
     17 C     c    0.107216    0.749478    0.000000     0.00000    1.000000
     18 C     c    0.115868    0.178803    0.000000     0.00000    1.000000
     19 C     c    0.120348    0.392474    0.000000     0.00000    1.000000
     20 C     c    0.129147    0.821062    0.000000     0.00000    1.000000
     21 C     c    0.133275    0.035391    0.000000     0.00000    1.000000
     22 C     c    0.142280    0.464094    0.000000     0.00000    1.000000
     23 C     c    0.146680    0.677777    0.000000     0.00000    1.000000
     24 C     c    0.155079    0.107989    0.000000     0.00000    1.000000
     25 C     c    0.159806    0.321196    0.000000     0.00000    1.000000
     26 C     c    0.168665    0.749108    0.000000     0.00000    1.000000
     27 C     c    0.172368    0.964468    0.000000     0.00000    1.000000
     28 C     c    0.181777    0.392729    0.000000     0.00000    1.000000
     29 C     c    0.186328    0.605191    0.000000     0.00000    1.000000
     30 C     c    0.194020    0.038101    0.000000     0.00000    1.000000
     31 C     c    0.199467    0.251716    0.000000     0.00000    1.000000
     32 C     c    0.208407    0.676263    0.000000     0.00000    1.000000
     33 C     c    0.210785    0.891395    0.000000     0.00000    1.000000
     34 C     c    0.221705    0.325942    0.000000     0.00000    1.000000
     35 C     c    0.227303    0.538053    0.000000     0.00000    1.000000
     36 C     c    0.231602    0.967665    0.000000     0.00000    1.000000
     37 C     c    0.238280    0.178684    0.000000     0.00000    1.000000
     38 C     c    0.250000    0.837589    0.000000     0.00000    1.000000
     39 C     c    0.250000    0.620290    0.000000     0.00000    1.000000
     40 C     c    0.261720    0.178684    0.000000     0.00000    1.000000
     41 C     c    0.268398    0.967665    0.000000     0.00000    1.000000
     42 C     c    0.272697    0.538053    0.000000     0.00000    1.000000
     43 C     c    0.278295    0.325942    0.000000     0.00000    1.000000
     44 C     c    0.289215    0.891395    0.000000     0.00000    1.000000
     45 C     c    0.291593    0.676263    0.000000     0.00000    1.000000
     46 C     c    0.300533    0.251716    0.000000     0.00000    1.000000
     47 C     c    0.305980    0.038101    0.000000     0.00000    1.000000
     48 C     c    0.313672    0.605191    0.000000     0.00000    1.000000
     49 C     c    0.318223    0.392729    0.000000     0.00000    1.000000
     50 C     c    0.327632    0.964468    0.000000     0.00000    1.000000
     51 C     c    0.331335    0.749108    0.000000     0.00000    1.000000
     52 C     c    0.340193    0.321196    0.000000     0.00000    1.000000
     53 C     c    0.344922    0.107989    0.000000     0.00000    1.000000
     54 C     c    0.353320    0.677777    0.000000     0.00000    1.000000
     55 C     c    0.357720    0.464094    0.000000     0.00000    1.000000
     56 C     c    0.366725    0.035391    0.000000     0.00000    1.000000
     57 C     c    0.370853    0.821062    0.000000     0.00000    1.000000
     58 C     c    0.379652    0.392474    0.000000     0.00000    1.000000
     59 C     c    0.384132    0.178803    0.000000     0.00000    1.000000
     60 C     c    0.392785    0.749478    0.000000     0.00000    1.000000
[...]
    138 C     c    0.906003    0.893190    0.000000     0.00000    1.000000
    139 C     c    0.910275    0.107226    0.000000     0.00000    1.000000
    140 C     c    0.919058    0.536043    0.000000     0.00000    1.000000
    141 C     c    0.923450    0.749856    0.000000     0.00000    1.000000
    142 C     c    0.932188    0.178921    0.000000     0.00000    1.000000
    143 C     c    0.936535    0.392805    0.000000     0.00000    1.000000
    144 C     c    0.945345    0.821706    0.000000     0.00000    1.000000
    145 C     c    0.949665    0.035648    0.000000     0.00000    1.000000
    146 C     c    0.958445    0.464547    0.000000     0.00000    1.000000
    147 C     c    0.962808    0.678411    0.000000     0.00000    1.000000
    148 C     c    0.971573    0.107386    0.000000     0.00000    1.000000
    149 C     c    0.975917    0.321282    0.000000     0.00000    1.000000
    150 C     c    0.984710    0.750200    0.000000     0.00000    1.000000
    151 C     c    0.989047    0.964111    0.000000     0.00000    1.000000
    152 C     c    0.997822    0.393048    0.000000     0.00000    1.000000

  Brillouin zone sampling points :

  Point number          x          y          z            Weight
        1           0.333330   0.400000   0.000000     1.00000000

*  General input information                                                   *

  Species output for all configurations :

  Species    Type    Atomic    Atomic    Charge       Radii (Angs)     Library
                     Number     Mass       (e)     Cova   Ionic  VDW   Symbol
    C        Core        6      12.01   0.000000   0.770  0.000  1.530

  Lattice summation method               =    Ewald          (3-D)
                                         =    Parry          (2-D)
                                         =    Saunders et al (1-D)
  Accuracy factor for lattice sums       =   12.000

  Analytic derivatives to be used

  Time limit = Infinity

  Maximum range for interatomic potentials =    100000.000000 Angstroms

  Brenner et al 2002 potential to be used with explicit splines for P

*  Output for configuration   1 : graphene                                     *

  Components of energy :

  Interatomic potentials     =           0.00000000 eV
  Brenner potentials         =       -1114.58973476 eV
  Monopole - monopole (real) =           0.00000000 eV
  Monopole - monopole (recip)=           0.00000000 eV
  Monopole - monopole (total)=           0.00000000 eV
  Total lattice energy       =       -1114.58973476 eV
  Total lattice energy       =         -107540.8713 kJ/(mole unit cells)

  Elastic Constant Matrix: (Units=GPa)

  Indices      1         2         3         4         5         6
       1   1069.3070  380.6499    0.0000   -0.0000    0.0000   -0.0083
       2    380.6499 1065.6003    0.0000    0.0000    0.0000    0.0054
       3      0.0000    0.0000    0.0000    0.0000    0.0000    0.0000
       4     -0.0000    0.0000    0.0000  -13.2552    0.0006    0.0000
       5      0.0000    0.0000    0.0000    0.0006  -14.0513   -0.0000
       6     -0.0083    0.0054    0.0000    0.0000   -0.0000  306.6171

  Mechanical properties :

  Convention :                    Reuss         Voigt         Hill
  Bulk  Modulus (GPa)     =       0.00000     321.80079     160.90039
  Shear Modulus (GPa)     =       0.00000     172.81260      86.40630
  Velocity S-wave (km/s)  =       0.00000       8.55153       6.04684
  Velocity P-wave (km/s)  =       0.00000      15.28661      10.80926
  Stress axis :                     x             y             z
  Youngs Moduli (GPa)     =    1069.30703     930.09730       0.00000
  Poissons Ratio (x)      =               -354041.41638      -0.00000
  Poissons Ratio (y)      = -407031.58238                    -0.00000
  Poissons Ratio (z)      =      -0.00000      -0.00000

  Piezoelectric Strain Matrix: (Units=C/m**2)

  Indices      1         2         3         4         5         6
       x    -0.00000  -0.00000  -0.00000  -0.00000  -0.00000  -0.00000
       y    -0.00000  -0.00000  -0.00000  -0.00000  -0.00000  -0.00000
       z    -0.00000  -0.00000  -0.00000  -0.00000  -0.00000  -0.00000

  Static dielectric constant tensor :

              x         y         z
       x     1.00000   0.00000   0.00000
       y     0.00000   1.00000   0.00000
       z     0.00000   0.00000   1.00000

  Static refractive indices :

    1 =    1.00000      2 =    1.00000      3 =    1.00000

  Phonon Calculation :

  Number of k points for this configuration =        1

  K point      1 =   0.333330  0.400000  0.000000  Weight =    1.000

  Frequencies (cm-1) :

  -86.81  -86.80  -65.21  -65.17  -56.75  -56.62  -49.84  -49.75  -47.97
  -46.51  -32.34  -29.08   -4.10    9.79   23.74   34.61   35.55   44.46
   58.76   64.42   71.14   74.40   95.28   96.63  106.76  108.63  130.36
  134.12  142.64  146.83  167.93  172.92  180.94  186.16  207.08  212.80
  220.33  226.31  230.68  234.38  246.71  252.88  258.28  259.72  266.09
  267.84  285.74  289.92  290.97  298.30  301.15  303.05  321.14  323.46
  324.09  330.73  331.79  333.11  333.37  339.30  343.03  344.03  345.07
  345.20  346.62  348.68  349.42  351.38  355.68  358.11  360.99  362.73
  367.30  367.94  369.08  374.25  377.24  379.08  382.05  384.19  388.20
  392.88  396.16  398.72  399.18  403.98  404.96  410.95  415.52  421.71
  427.53  427.61  434.30  435.89  440.70  445.87  449.46  452.34  453.34
  459.68  463.10  465.69  466.97  479.18  486.71  489.38  498.65  499.52
  504.35  505.76  511.90  521.60  524.60  526.76  531.74  532.78  535.40
  545.96  552.24  554.12  554.88  556.06  559.24  560.96  568.97  569.69
  571.98  575.82  577.30  581.05  581.63  584.27  587.57  587.64  592.39
  597.78  598.92  599.46  600.54  604.61  604.73  606.78  607.91  611.12
  611.13  611.46  615.07  616.51  623.04  623.90  629.07  629.98  630.54
  631.52  632.79  633.90  634.16  634.94  639.58  641.89  644.02  647.60
  647.84  650.36  650.92  657.45  658.67  660.65  664.18  667.91  669.72
  671.81  675.91  678.26  681.47  683.17  689.00  692.31  696.68  700.91
  706.67  708.88  716.46  718.69  721.55  724.42  727.41  730.03  736.16
  740.46  741.46  748.97  750.83  753.92  754.97  758.03  761.40  767.61
  774.86  781.89  782.95  785.88  786.00  793.18  793.80  798.11  806.01
  807.64  809.49  812.56  813.73  816.05  822.17  824.21  829.82  834.18
  835.47  839.44  842.04  842.99  846.30  847.84  858.57  859.28  862.89
  863.72  865.73  869.55  874.60  878.14  881.69  882.71  883.31  886.33
  891.16  891.70  892.48  896.24  897.61  906.66  908.89  909.47  913.81
  920.50  921.91  922.29  925.70  931.77  931.97  943.21  949.43  949.47
  955.96  955.97  960.01  972.87  985.56  989.54 1008.30 1025.29 1033.69
 1034.59 1055.39 1065.40 1077.86 1091.06 1114.10 1128.34 1133.48 1145.78
 1172.39 1177.82 1188.55 1192.42 1216.25 1217.71 1220.01 1222.11 1230.57
 1233.19 1239.61 1244.11 1250.53 1253.59 1256.00 1259.34 1266.26 1271.61
 1281.40 1283.95 1293.95 1294.14 1299.39 1300.80 1309.82 1310.50 1325.23
 1326.42 1340.34 1341.76 1343.73 1344.33 1347.28 1348.22 1366.31 1372.78
 1389.18 1397.70 1414.49 1421.18 1438.59 1440.88 1449.24 1451.60 1463.18
 1468.80 1475.39 1483.44 1487.78 1491.28 1509.29 1513.60 1516.67 1522.90
 1534.97 1536.85 1547.30 1548.05 1557.23 1558.91 1563.51 1564.47 1569.55
 1572.19 1586.47 1588.17 1594.62 1599.62 1616.31 1624.95 1633.06 1635.47
 1650.76 1659.42 1670.74 1673.18 1684.02 1692.91 1703.55 1705.64 1713.12
 1721.77 1732.55 1734.18 1739.29 1746.53 1757.45 1758.38 1763.65 1768.56
 1777.18 1778.51 1783.89 1787.35 1791.41 1792.53 1798.73 1800.82 1806.27
 1806.62 1811.97 1812.74 1818.82 1819.58 1822.92 1823.57 1824.49 1824.74
 1829.33 1830.03 1834.79 1835.63 1838.67 1839.09 1843.73 1843.91 1844.53
 1844.55 1845.21 1845.41 1846.38 1846.69 1847.76 1848.25 1851.35 1851.79
 1852.11 1852.14 1853.06 1853.08 1854.73 1854.88 1855.79 1855.84 1856.35
 1856.47 1857.36 1857.40 1859.02 1859.38 1860.25 1860.27 1861.23 1861.23
 1863.24 1863.50 1865.62 1865.80 1867.71 1867.82 1871.55 1871.71 1874.76
 1875.15 1881.89 1882.18 1882.79 1883.19 1889.45 1889.77 1893.44 1893.55
 1895.10 1895.27 1898.40 1898.88 1900.44 1901.31 1903.57 1904.69 1907.88
 1908.50 1912.48 1912.60 1946.79 1946.80 1974.19 1974.20 1974.96 1974.97
 2009.88 2009.89 2167.88 2167.89 2192.60 2192.60

 Group velocities (cm-1.Ang) :

 Mode         X             Y             Z

     1      -0.191095      0.948377     -0.000000 i
     2       0.191505      1.034550     -0.000000 i
     3      -0.929062     22.566100     -0.000000 i
     4       0.942856     22.494776     -0.000000 i
     5      -3.333043     39.019786     -0.000000 i
     6       3.196119     43.611222     -0.000000 i
     7      -1.719212     -1.131609     -0.000000 i
     8       3.518411     -4.082745     -0.000000 i
     9     -32.742439    -68.857744     -0.000000 i
    10      46.031188    -75.487919     -0.000000 i
    11    -102.100518   -115.159667     -0.000000 i
    12      67.520284     34.297841     -0.000000 i
    13      51.602655   2869.033202     -0.000000 i
    14    -336.018983  -1134.302909      0.000000
    15     290.537986   -487.904823      0.000000
    16    -325.112429   -233.184471      0.000000
    17     248.154247   -301.576607      0.000000
    18    -251.738200   -268.700627      0.000000
    19     340.652938    -46.984894      0.000000
    20     250.613304   -220.241344      0.000000
    21    -327.927618    -32.472046      0.000000
    22    -279.008925   -195.766235      0.000000
    23     325.761783   -119.453188      0.000000
    24     322.372802    -52.476198      0.000000
    25    -321.306672   -131.939298      0.000000
    26    -343.920301    -32.445772      0.000000
    27     342.811700    -92.856822      0.000000
    28     352.782514    -44.361860      0.000000
    29    -349.220820    -76.809699      0.000000
    30    -363.085771    -55.786162      0.000000
    31     365.870531    -46.478013      0.000000
    32     368.172886    -65.882208      0.000000
    33    -366.844612    -37.715798      0.000000
    34    -377.661618    -72.119030      0.000000
    35     375.754254    -22.257768      0.000000
    36     375.651212    -70.854234      0.000000
    37    -367.412337    -21.623100      0.000000
    38    -382.266283    -70.806265      0.000000
    39      79.444451    520.681022      0.000000
    40    -119.682998    508.246134      0.000000
    41     368.813761    -15.044261      0.000000
    42     364.051055    -61.901843      0.000000
    43     233.121538    523.897747      0.000000
    44    -349.443260    -18.513692      0.000000
    45    -367.297614    -58.673361      0.000000
    46    -300.078225    507.822284      0.000000
    47     345.126604     -7.294489      0.000000
    48     320.485146    471.948858      0.000000
    49     317.499433    -50.970107      0.000000
    50    -316.462435     -9.220834      0.000000
    51    -322.404749    439.365111      0.000000
    52    -319.122204    -51.881320      0.000000
    53     280.743808     29.895498      0.000000
    54     228.481816    -39.667566      0.000000
    55     299.490534    293.940605      0.000000
    56     -69.278065   -261.789438      0.000000
    57    -197.937613     42.718431      0.000000
    58    -196.236932    -46.126878      0.000000
    59      57.859526   -310.965569      0.000000
    60    -288.914911    252.375824      0.000000
    61      28.394213    185.333124      0.000000
    62     -39.851707    176.178451      0.000000
    63      30.525730    200.331853      0.000000
    64      77.327538    101.092515      0.000000
    65     -14.214182    150.932228      0.000000
    66     -62.636573    -10.400290      0.000000
    67      56.507560    192.146219      0.000000
    68     -44.305484    188.539708      0.000000
    69      82.560035    216.112079      0.000000
    70     -14.065230    172.180299      0.000000
    71     255.536070    111.863013      0.000000
    72      76.417749    131.513578      0.000000
    73     -79.583130    146.876606      0.000000
[...]
   442     -13.984244    -19.732244      0.000000
   443       3.540154     -8.123677      0.000000
   444      -3.108374     -8.776506      0.000000
   445       0.000133    -10.518007      0.000000
   446      -0.000133    -10.514449      0.000000
   447       0.000001     -0.795550      0.000000
   448      -0.000001     -0.796951      0.000000
   449       0.000002      5.272077      0.000000
   450      -0.000002      5.270480      0.000000
   451       0.000000     -1.407503      0.000000
   452      -0.000000     -1.407144      0.000000
   453       0.000000      0.195391      0.000000
   454      -0.000000      0.195340      0.000000
   455       0.000000      1.084026      0.000000
   456      -0.000000      1.083944      0.000000

  Phonon properties (per mole of unit cells): Temperature =      0.000 K
  Zero point energy             =       28.703815 eV

  Phonon density of states :

 Frequency (cm-1) Density of States
    0.00000 |***                                                           0.005
   34.25937 |********                                                      0.011
   68.51874 |*******                                                       0.009
  102.77812 |*******                                                       0.009
  137.03749 |*****                                                         0.007
  171.29686 |*****                                                         0.007
  205.55623 |**********                                                    0.014
  239.81561 |**********                                                    0.014
  274.07498 |**********                                                    0.014
  308.33435 |**************                                                0.018
  342.59372 |****************************                                  0.036
  376.85310 |*********************                                         0.027
  411.11247 |************                                                  0.016
  445.37184 |***************                                               0.020
  479.63121 |************                                                  0.016
  513.89059 |************                                                  0.016
  548.14996 |**********************                                        0.029
  582.40933 |******************************                                0.038
  616.66870 |******************************                                0.038
  650.92808 |*******************                                           0.025
  685.18745 |**************                                                0.018
  719.44682 |***************                                               0.020
  753.70619 |*****************                                             0.023
  787.96557 |*****************                                             0.023
  822.22494 |***************                                               0.020
  856.48431 |*********************                                         0.027
  890.74368 |*********************                                         0.027
  925.00306 |**************                                                0.018
  959.26243 |*******                                                       0.009
  993.52180 |***                                                           0.005
 1027.78117 |*****                                                         0.007
 1062.04055 |*****                                                         0.007
 1096.29992 |***                                                           0.005
 1130.55929 |***                                                           0.005
 1164.81866 |*******                                                       0.009
 1199.07804 |**********                                                    0.014
 1233.33741 |************                                                  0.016
 1267.59678 |************                                                  0.016
 1301.85615 |*******                                                       0.009
 1336.11553 |************                                                  0.016
 1370.37490 |*****                                                         0.007
 1404.63427 |*****                                                         0.007
 1438.89364 |********                                                      0.011
 1473.15302 |*******                                                       0.009
 1507.41239 |**********                                                    0.014
 1541.67176 |**************                                                0.018
 1575.93113 |*******                                                       0.009
 1610.19051 |*******                                                       0.009
 1644.44988 |*******                                                       0.009
 1678.70925 |*******                                                       0.009
 1712.96862 |**********                                                    0.014
 1747.22800 |**********                                                    0.014
 1781.48737 |*****************                                             0.023
 1815.74674 |**************************************                        0.050
 1850.00611 |************************************************************  0.077
 1884.26549 |****************************                                  0.036
 1918.52486 |***                                                           0.005
 1952.78423 |*******                                                       0.009
 1987.04360 |***                                                           0.005
 2021.30298 |                                                              0.000
 2055.56235 |                                                              0.000
 2089.82172 |                                                              0.000
 2124.08109 |                                                              0.000
 2158.34047 |*******                                                       0.009

  Time to end of properties =       5.1125 seconds

  Timing analysis for GULP :

  Task / Subroutine                                          Time (Seconds)
  Calculation of Brenner energy and derivatives                   3.8004
  Calculation of phonons                                          1.3127
  Calculation of matrix diagonalisation                           0.6667
  Disk read/write operations to scratch files                     0.0011

  Job Finished at 01:17.41 23rd June       2024